c File: instances/28_0.10_3.col
c
c Description: Random graph of size 28 vertices and P(0.1) of edges between any two vertices.
p col 28 378
e 2 11
e 2 18
e 2 21
e 2 25
e 3 5
e 3 23
e 4 7
e 4 22
e 4 28
e 5 11
e 5 18
e 5 27
e 6 9
e 6 12
e 6 18
e 6 22
e 6 27
e 7 9
e 7 20
e 7 26
e 7 28
e 8 18
e 8 20
e 8 22
e 8 23
e 8 25
e 10 28
e 12 23
e 13 20
e 13 22
e 14 28
e 16 17
e 17 27
e 19 21
e 19 22
e 21 24
e 21 27
e 21 28
e 22 28
e 23 28
e 25 27